K = 10;

P = [ 37 54 41 54 62 19 17 91 10 39 ];

R = [ 11 16 17 28 17 22 40 19 17 39 ];

A = [ 4 5 4 6 6 2 5 4 4 5 ];

C = [ 5 9 3 6 4 4 4 9 7 4 ];

N = 10;

M = [
[ 0 30 8 3 27 3 46 13 17 25 ]
[ 30 0 32 29 29 28 44 24 30 30 ]
[ 8 32 0 38 31 2 18 6 32 46 ]
[ 3 29 38 0 32 22 48 32 42 14 ]
[ 27 29 31 32 0 16 19 41 15 6 ]
[ 3 28 2 22 16 0 31 12 29 30 ]
[ 46 44 18 48 19 31 0 34 22 18 ]
[ 13 24 6 32 41 12 34 0 41 23 ]
[ 17 30 32 42 15 29 22 41 0 7 ]
[ 25 30 46 14 6 30 18 23 7 0 ]
 ];

